//   Copyright 2020 IBM Corporation
//
//   Licensed under the Apache License, Version 2.0 (the "License");
//   you may not use this file except in compliance with the License.
//   You may obtain a copy of the License at
//
//       http://www.apache.org/licenses/LICENSE-2.0
//
//   Unless required by applicable law or agreed to in writing, software
//   distributed under the License is distributed on an "AS IS" BASIS,
//   WITHOUT WARRANTIES OR CONDITIONS OF ANY KIND, either express or implied.
//   See the License for the specific language governing permissions and
//   limitations under the License.

// Define the elements to be loaded by the external .NET code.
customLoad = {
 <"unused connection string", "SimpleData", {
   "intValue=5",
   "floatValue=0.5",
   "intSet=1;2;3;4",
   "floatSet=0.1;0.2;0.3;0.4",
   "stringSet=a;b;c;d",
   "tupleValue=1,a,0.1",
   "tupleSet=1,a,0.1;2,b,0.2;3,c,0.3",
   "tupleArray=4,d,0.4;5,e,0.5"
 } >,
 < "URI=file:CustomDataSource.sqlite", "SQLite", {
  "sqliteTupleSet=SELECT * FROM TupleData"
 } >,
 < "URI=file:CustomDataSource.sqlite", "System.Data.SQLite", {
  "genericTupleSet=SELECT * FROM TupleData"
 } >
};
